NAME /Users/henri/Research/solvers/instances/idol-instances/robust/collection/cbp_Subramanyam_et_al_2020/CapBud_N25_11/models/uncertain_technology_matrix/
ROWS
 N  OBJ
 L  capacity
 L  c_4335
 L  c_4336
 L  c_4337
 L  c_4338
 L  c_4339
 L  c_4340
 L  c_4341
 L  c_4342
 L  c_4343
 L  c_4344
 L  c_4345
 L  c_4346
 L  c_4347
 L  c_4348
 L  c_4349
 L  c_4350
 L  c_4351
 L  c_4352
 L  c_4353
 L  c_4354
 L  c_4355
 L  c_4356
 L  c_4357
 L  c_4358
 L  c_4359
COLUMNS
    MARKER    'MARKER'                 'INTORG'
    x_0        OBJ        -0.601588
    x_0        c_4335     1
    x_0        capacity   0.120318
    x_1        OBJ        -9.15952
    x_1        c_4336     1
    x_1        capacity   1.8319
    x_2        OBJ        -4.44796
    x_2        c_4337     1
    x_2        capacity   0.889592
    x_3        OBJ        -9.52645
    x_3        c_4338     1
    x_3        capacity   1.90529
    x_4        OBJ        -8.35228
    x_4        c_4339     1
    x_4        capacity   1.67046
    x_5        OBJ        -7.60829
    x_5        c_4340     1
    x_5        capacity   1.52166
    x_6        OBJ        -4.61219
    x_6        c_4341     1
    x_6        capacity   0.922438
    x_7        OBJ        -5.13332
    x_7        c_4342     1
    x_7        capacity   1.02666
    x_8        OBJ        -9.42393
    x_8        c_4343     1
    x_8        capacity   1.88479
    x_9        OBJ        -4.54501
    x_9        c_4344     1
    x_9        capacity   0.909002
    x_10       OBJ        -2.02846
    x_10       c_4345     1
    x_10       capacity   0.405693
    x_11       OBJ        -3.21531
    x_11       c_4346     1
    x_11       capacity   0.643063
    x_12       OBJ        -5.70065
    x_12       c_4347     1
    x_12       capacity   1.14013
    x_13       OBJ        -6.6356
    x_13       c_4348     1
    x_13       capacity   1.32712
    x_14       OBJ        -5.19619
    x_14       c_4349     1
    x_14       capacity   1.03924
    x_15       OBJ        -0.173014
    x_15       c_4350     1
    x_15       capacity   0.0346028
    x_16       OBJ        -5.11834
    x_16       c_4351     1
    x_16       capacity   1.02367
    x_17       OBJ        -4.33019
    x_17       c_4352     1
    x_17       capacity   0.866037
    x_18       OBJ        -2.62815
    x_18       c_4353     1
    x_18       capacity   0.52563
    x_19       OBJ        -8.83739
    x_19       c_4354     1
    x_19       capacity   1.76748
    x_20       OBJ        -8.12294
    x_20       c_4355     1
    x_20       capacity   1.62459
    x_21       OBJ        -3.10153
    x_21       c_4356     1
    x_21       capacity   0.620305
    x_22       OBJ        -0.452527
    x_22       c_4357     1
    x_22       capacity   0.0905055
    x_23       OBJ        -8.31135
    x_23       c_4358     1
    x_23       capacity   1.66227
    x_24       OBJ        -7.02513
    x_24       c_4359     1
    x_24       capacity   1.40503
    y_0        OBJ        -0.481271
    y_0        c_4335     1
    y_0        capacity   0.120318
    y_1        OBJ        -7.32762
    y_1        c_4336     1
    y_1        capacity   1.8319
    y_2        OBJ        -3.55837
    y_2        c_4337     1
    y_2        capacity   0.889592
    y_3        OBJ        -7.62116
    y_3        c_4338     1
    y_3        capacity   1.90529
    y_4        OBJ        -6.68183
    y_4        c_4339     1
    y_4        capacity   1.67046
    y_5        OBJ        -6.08663
    y_5        c_4340     1
    y_5        capacity   1.52166
    y_6        OBJ        -3.68975
    y_6        c_4341     1
    y_6        capacity   0.922438
    y_7        OBJ        -4.10666
    y_7        c_4342     1
    y_7        capacity   1.02666
    y_8        OBJ        -7.53914
    y_8        c_4343     1
    y_8        capacity   1.88479
    y_9        OBJ        -3.63601
    y_9        c_4344     1
    y_9        capacity   0.909002
    y_10       OBJ        -1.62277
    y_10       c_4345     1
    y_10       capacity   0.405693
    y_11       OBJ        -2.57225
    y_11       c_4346     1
    y_11       capacity   0.643063
    y_12       OBJ        -4.56052
    y_12       c_4347     1
    y_12       capacity   1.14013
    y_13       OBJ        -5.30848
    y_13       c_4348     1
    y_13       capacity   1.32712
    y_14       OBJ        -4.15695
    y_14       c_4349     1
    y_14       capacity   1.03924
    y_15       OBJ        -0.138411
    y_15       c_4350     1
    y_15       capacity   0.0346028
    y_16       OBJ        -4.09467
    y_16       c_4351     1
    y_16       capacity   1.02367
    y_17       OBJ        -3.46415
    y_17       c_4352     1
    y_17       capacity   0.866037
    y_18       OBJ        -2.10252
    y_18       c_4353     1
    y_18       capacity   0.52563
    y_19       OBJ        -7.06991
    y_19       c_4354     1
    y_19       capacity   1.76748
    y_20       OBJ        -6.49835
    y_20       c_4355     1
    y_20       capacity   1.62459
    y_21       OBJ        -2.48122
    y_21       c_4356     1
    y_21       capacity   0.620305
    y_22       OBJ        -0.362022
    y_22       c_4357     1
    y_22       capacity   0.0905055
    y_23       OBJ        -6.64908
    y_23       c_4358     1
    y_23       capacity   1.66227
    y_24       OBJ        -5.6201
    y_24       c_4359     1
    y_24       capacity   1.40503
    MARKER    'MARKER'                 'INTEND'
RHS
    RHS       capacity   67.1437
    RHS       c_4335     1
    RHS       c_4336     1
    RHS       c_4337     1
    RHS       c_4338     1
    RHS       c_4339     1
    RHS       c_4340     1
    RHS       c_4341     1
    RHS       c_4342     1
    RHS       c_4343     1
    RHS       c_4344     1
    RHS       c_4345     1
    RHS       c_4346     1
    RHS       c_4347     1
    RHS       c_4348     1
    RHS       c_4349     1
    RHS       c_4350     1
    RHS       c_4351     1
    RHS       c_4352     1
    RHS       c_4353     1
    RHS       c_4354     1
    RHS       c_4355     1
    RHS       c_4356     1
    RHS       c_4357     1
    RHS       c_4358     1
    RHS       c_4359     1
BOUNDS
 LI BND       x_0        0
 UI BND       x_0        1
 LI BND       x_1        0
 UI BND       x_1        1
 LI BND       x_2        0
 UI BND       x_2        1
 LI BND       x_3        0
 UI BND       x_3        1
 LI BND       x_4        0
 UI BND       x_4        1
 LI BND       x_5        0
 UI BND       x_5        1
 LI BND       x_6        0
 UI BND       x_6        1
 LI BND       x_7        0
 UI BND       x_7        1
 LI BND       x_8        0
 UI BND       x_8        1
 LI BND       x_9        0
 UI BND       x_9        1
 LI BND       x_10       0
 UI BND       x_10       1
 LI BND       x_11       0
 UI BND       x_11       1
 LI BND       x_12       0
 UI BND       x_12       1
 LI BND       x_13       0
 UI BND       x_13       1
 LI BND       x_14       0
 UI BND       x_14       1
 LI BND       x_15       0
 UI BND       x_15       1
 LI BND       x_16       0
 UI BND       x_16       1
 LI BND       x_17       0
 UI BND       x_17       1
 LI BND       x_18       0
 UI BND       x_18       1
 LI BND       x_19       0
 UI BND       x_19       1
 LI BND       x_20       0
 UI BND       x_20       1
 LI BND       x_21       0
 UI BND       x_21       1
 LI BND       x_22       0
 UI BND       x_22       1
 LI BND       x_23       0
 UI BND       x_23       1
 LI BND       x_24       0
 UI BND       x_24       1
 LI BND       y_0        0
 UI BND       y_0        1
 LI BND       y_1        0
 UI BND       y_1        1
 LI BND       y_2        0
 UI BND       y_2        1
 LI BND       y_3        0
 UI BND       y_3        1
 LI BND       y_4        0
 UI BND       y_4        1
 LI BND       y_5        0
 UI BND       y_5        1
 LI BND       y_6        0
 UI BND       y_6        1
 LI BND       y_7        0
 UI BND       y_7        1
 LI BND       y_8        0
 UI BND       y_8        1
 LI BND       y_9        0
 UI BND       y_9        1
 LI BND       y_10       0
 UI BND       y_10       1
 LI BND       y_11       0
 UI BND       y_11       1
 LI BND       y_12       0
 UI BND       y_12       1
 LI BND       y_13       0
 UI BND       y_13       1
 LI BND       y_14       0
 UI BND       y_14       1
 LI BND       y_15       0
 UI BND       y_15       1
 LI BND       y_16       0
 UI BND       y_16       1
 LI BND       y_17       0
 UI BND       y_17       1
 LI BND       y_18       0
 UI BND       y_18       1
 LI BND       y_19       0
 UI BND       y_19       1
 LI BND       y_20       0
 UI BND       y_20       1
 LI BND       y_21       0
 UI BND       y_21       1
 LI BND       y_22       0
 UI BND       y_22       1
 LI BND       y_23       0
 UI BND       y_23       1
 LI BND       y_24       0
 UI BND       y_24       1
ENDATA
